language Essence 1.3

letting class be function(1 --> 1, 2 --> 2, 3 --> 1, 4 --> 3, 5 --> 3, 6 --> 2, 7 --> 5, 8 --> 4)
letting deck_length be 16
letting deck_width be 49
letting length be function(1 --> 14, 2 --> 10, 3 --> 4, 4 --> 14, 5 --> 11, 6 --> 8, 7 --> 12, 8 --> 14)
letting n_classes be 5
letting n_containers be 8
letting separation be function({1, 2} --> 15, {1, 3} --> 9, {2, 3} --> 10)
letting width be function(1 --> 4, 2 --> 2, 3 --> 1, 4 --> 34, 5 --> 1, 6 --> 5, 7 --> 3, 8 --> 7)
